Quantum-Cryptanalysis/instances/samples/hf_n32/hf_n32_cnf01.sol
c DPLL-like Solver for max-min SAT
f file hf_n32_cnf01.cnf
p cnf 32 220
s max  220 30 8 -7 5 -6 -22 -18 12 10 -9 19 -4 -2 29 -3 -15 14 -16 13 -28 -23 -11 -27 -17 -1 -32 -20 -26 -31 -24 -25 -21
s min  192 -29 11 -10 12 -31 -9 -8 18 -15 16 -14 -20 -27 13 28 -32 -17 -19 -23 -21 -22 -24 -26 -30 25 1 2 3 -4 5 -6 7